wcsp 27 2 57 100000000
2 2 2 2 2 2 2 2 2 2 2 2 2 2 2 2 2 2 2 2 2 2 2 2 2 2 2
1 22 100000000 2
0 0.4004775416877218
1 1.1086626750952504
1 23 100000000 2
0 0.4004775416877218
1 1.1086626750952504
1 24 100000000 2
0 0.4004775416877218
1 1.1086626750952504
1 25 100000000 2
0 0.4004775416877218
1 1.1086626750952504
1 26 100000000 2
0 0.4004775416877218
1 1.1086626750952504
1 10 100000000 2
0 0.4004775416877218
1 1.1086626750952504
1 11 100000000 2
0 0.4004775416877218
1 1.1086626750952504
1 12 100000000 2
0 0.4004775416877218
1 1.1086626750952504
1 13 100000000 2
0 0.4004775416877218
1 1.1086626750952504
1 14 100000000 2
0 0.4004775416877218
1 1.1086626750952504
1 15 100000000 2
0 0.4004775416877218
1 1.1086626750952504
1 16 100000000 2
0 0.4004775416877218
1 1.1086626750952504
1 17 100000000 2
0 0.4004775416877218
1 1.1086626750952504
1 18 100000000 2
0 0.4004775416877218
1 1.1086626750952504
1 19 100000000 2
0 0.4004775416877218
1 1.1086626750952504
1 0 100000000 2
0 0.4004775416877218
1 1.1086626750952504
1 1 100000000 2
0 0.4004775416877218
1 1.1086626750952504
1 2 100000000 2
0 0.4004775416877218
1 1.1086626750952504
1 3 100000000 2
0 0.4004775416877218
1 1.1086626750952504
1 4 100000000 2
0 0.4004775416877218
1 1.1086626750952504
1 5 100000000 2
0 0.4004775416877218
1 1.1086626750952504
1 6 100000000 2
0 0.4004775416877218
1 1.1086626750952504
1 7 100000000 2
0 0.4004775416877218
1 1.1086626750952504
1 8 100000000 2
0 0.4004775416877218
1 1.1086626750952504
1 9 100000000 2
0 0.4004775416877218
1 1.1086626750952504
1 20 100000000 2
0 0.4004775416877218
1 1.1086626750952504
1 21 100000000 2
0 0.4004775416877218
1 1.1086626750952504
3 0 1 2 100000000 8
0 0 0 100000000.0
0 0 1 1.0986122886681098
0 1 0 1.0986122886681098
0 1 1 100000000.0
1 0 0 1.0986122886681098
1 0 1 100000000.0
1 1 0 100000000.0
1 1 1 100000000.0
3 3 4 5 100000000 8
0 0 0 100000000.0
0 0 1 1.0986122886681098
0 1 0 1.0986122886681098
0 1 1 100000000.0
1 0 0 1.0986122886681098
1 0 1 100000000.0
1 1 0 100000000.0
1 1 1 100000000.0
3 6 7 8 100000000 8
0 0 0 100000000.0
0 0 1 1.0986122886681098
0 1 0 1.0986122886681098
0 1 1 100000000.0
1 0 0 1.0986122886681098
1 0 1 100000000.0
1 1 0 100000000.0
1 1 1 100000000.0
3 9 10 11 100000000 8
0 0 0 100000000.0
0 0 1 1.0986122886681098
0 1 0 1.0986122886681098
0 1 1 100000000.0
1 0 0 1.0986122886681098
1 0 1 100000000.0
1 1 0 100000000.0
1 1 1 100000000.0
3 12 13 14 100000000 8
0 0 0 100000000.0
0 0 1 1.0986122886681098
0 1 0 1.0986122886681098
0 1 1 100000000.0
1 0 0 1.0986122886681098
1 0 1 100000000.0
1 1 0 100000000.0
1 1 1 100000000.0
3 15 16 17 100000000 8
0 0 0 100000000.0
0 0 1 1.0986122886681098
0 1 0 1.0986122886681098
0 1 1 100000000.0
1 0 0 1.0986122886681098
1 0 1 100000000.0
1 1 0 100000000.0
1 1 1 100000000.0
3 18 19 20 100000000 8
0 0 0 100000000.0
0 0 1 1.0986122886681098
0 1 0 1.0986122886681098
0 1 1 100000000.0
1 0 0 1.0986122886681098
1 0 1 100000000.0
1 1 0 100000000.0
1 1 1 100000000.0
3 21 22 23 100000000 8
0 0 0 100000000.0
0 0 1 1.0986122886681098
0 1 0 1.0986122886681098
0 1 1 100000000.0
1 0 0 1.0986122886681098
1 0 1 100000000.0
1 1 0 100000000.0
1 1 1 100000000.0
3 24 25 26 100000000 8
0 0 0 100000000.0
0 0 1 1.0986122886681098
0 1 0 1.0986122886681098
0 1 1 100000000.0
1 0 0 1.0986122886681098
1 0 1 100000000.0
1 1 0 100000000.0
1 1 1 100000000.0
3 0 3 6 100000000 8
0 0 0 100000000.0
0 0 1 1.0986122886681098
0 1 0 1.0986122886681098
0 1 1 100000000.0
1 0 0 1.0986122886681098
1 0 1 100000000.0
1 1 0 100000000.0
1 1 1 100000000.0
3 1 4 7 100000000 8
0 0 0 100000000.0
0 0 1 1.0986122886681098
0 1 0 1.0986122886681098
0 1 1 100000000.0
1 0 0 1.0986122886681098
1 0 1 100000000.0
1 1 0 100000000.0
1 1 1 100000000.0
3 2 5 8 100000000 8
0 0 0 100000000.0
0 0 1 1.0986122886681098
0 1 0 1.0986122886681098
0 1 1 100000000.0
1 0 0 1.0986122886681098
1 0 1 100000000.0
1 1 0 100000000.0
1 1 1 100000000.0
3 9 12 15 100000000 8
0 0 0 100000000.0
0 0 1 1.0986122886681098
0 1 0 1.0986122886681098
0 1 1 100000000.0
1 0 0 1.0986122886681098
1 0 1 100000000.0
1 1 0 100000000.0
1 1 1 100000000.0
3 10 13 16 100000000 8
0 0 0 100000000.0
0 0 1 1.0986122886681098
0 1 0 1.0986122886681098
0 1 1 100000000.0
1 0 0 1.0986122886681098
1 0 1 100000000.0
1 1 0 100000000.0
1 1 1 100000000.0
3 11 14 17 100000000 8
0 0 0 100000000.0
0 0 1 1.0986122886681098
0 1 0 1.0986122886681098
0 1 1 100000000.0
1 0 0 1.0986122886681098
1 0 1 100000000.0
1 1 0 100000000.0
1 1 1 100000000.0
3 18 21 24 100000000 8
0 0 0 100000000.0
0 0 1 1.0986122886681098
0 1 0 1.0986122886681098
0 1 1 100000000.0
1 0 0 1.0986122886681098
1 0 1 100000000.0
1 1 0 100000000.0
1 1 1 100000000.0
3 19 22 25 100000000 8
0 0 0 100000000.0
0 0 1 1.0986122886681098
0 1 0 1.0986122886681098
0 1 1 100000000.0
1 0 0 1.0986122886681098
1 0 1 100000000.0
1 1 0 100000000.0
1 1 1 100000000.0
3 20 23 26 100000000 8
0 0 0 100000000.0
0 0 1 1.0986122886681098
0 1 0 1.0986122886681098
0 1 1 100000000.0
1 0 0 1.0986122886681098
1 0 1 100000000.0
1 1 0 100000000.0
1 1 1 100000000.0
6 0 11 3 14 6 17 100000000 64
0 0 0 0 0 0 100000000.0
0 0 0 0 0 1 100000000.0
0 0 0 0 1 0 100000000.0
0 0 0 0 1 1 3.6109179126442243
0 0 0 1 0 0 100000000.0
0 0 0 1 0 1 100000000.0
0 0 0 1 1 0 100000000.0
0 0 0 1 1 1 3.6109179126442243
0 0 1 0 0 0 100000000.0
0 0 1 0 0 1 100000000.0
0 0 1 0 1 0 100000000.0
0 0 1 0 1 1 3.6109179126442243
0 0 1 1 0 0 3.6109179126442243
0 0 1 1 0 1 3.6109179126442243
0 0 1 1 1 0 3.6109179126442243
0 0 1 1 1 1 3.6109179126442243
0 1 0 0 0 0 100000000.0
0 1 0 0 0 1 100000000.0
0 1 0 0 1 0 100000000.0
0 1 0 0 1 1 3.6109179126442243
0 1 0 1 0 0 100000000.0
0 1 0 1 0 1 100000000.0
0 1 0 1 1 0 100000000.0
0 1 0 1 1 1 3.6109179126442243
0 1 1 0 0 0 100000000.0
0 1 1 0 0 1 100000000.0
0 1 1 0 1 0 100000000.0
0 1 1 0 1 1 3.6109179126442243
0 1 1 1 0 0 3.6109179126442243
0 1 1 1 0 1 3.6109179126442243
0 1 1 1 1 0 3.6109179126442243
0 1 1 1 1 1 3.6109179126442243
1 0 0 0 0 0 100000000.0
1 0 0 0 0 1 100000000.0
1 0 0 0 1 0 100000000.0
1 0 0 0 1 1 3.6109179126442243
1 0 0 1 0 0 100000000.0
1 0 0 1 0 1 100000000.0
1 0 0 1 1 0 100000000.0
1 0 0 1 1 1 3.6109179126442243
1 0 1 0 0 0 100000000.0
1 0 1 0 0 1 100000000.0
1 0 1 0 1 0 100000000.0
1 0 1 0 1 1 3.6109179126442243
1 0 1 1 0 0 3.6109179126442243
1 0 1 1 0 1 3.6109179126442243
1 0 1 1 1 0 3.6109179126442243
1 0 1 1 1 1 3.6109179126442243
1 1 0 0 0 0 3.6109179126442243
1 1 0 0 0 1 3.6109179126442243
1 1 0 0 1 0 3.6109179126442243
1 1 0 0 1 1 3.6109179126442243
1 1 0 1 0 0 3.6109179126442243
1 1 0 1 0 1 3.6109179126442243
1 1 0 1 1 0 3.6109179126442243
1 1 0 1 1 1 3.6109179126442243
1 1 1 0 0 0 3.6109179126442243
1 1 1 0 0 1 3.6109179126442243
1 1 1 0 1 0 3.6109179126442243
1 1 1 0 1 1 3.6109179126442243
1 1 1 1 0 0 3.6109179126442243
1 1 1 1 0 1 3.6109179126442243
1 1 1 1 1 0 3.6109179126442243
1 1 1 1 1 1 3.6109179126442243
6 10 18 13 21 16 24 100000000 64
0 0 0 0 0 0 100000000.0
0 0 0 0 0 1 100000000.0
0 0 0 0 1 0 100000000.0
0 0 0 0 1 1 3.6109179126442243
0 0 0 1 0 0 100000000.0
0 0 0 1 0 1 100000000.0
0 0 0 1 1 0 100000000.0
0 0 0 1 1 1 3.6109179126442243
0 0 1 0 0 0 100000000.0
0 0 1 0 0 1 100000000.0
0 0 1 0 1 0 100000000.0
0 0 1 0 1 1 3.6109179126442243
0 0 1 1 0 0 3.6109179126442243
0 0 1 1 0 1 3.6109179126442243
0 0 1 1 1 0 3.6109179126442243
0 0 1 1 1 1 3.6109179126442243
0 1 0 0 0 0 100000000.0
0 1 0 0 0 1 100000000.0
0 1 0 0 1 0 100000000.0
0 1 0 0 1 1 3.6109179126442243
0 1 0 1 0 0 100000000.0
0 1 0 1 0 1 100000000.0
0 1 0 1 1 0 100000000.0
0 1 0 1 1 1 3.6109179126442243
0 1 1 0 0 0 100000000.0
0 1 1 0 0 1 100000000.0
0 1 1 0 1 0 100000000.0
0 1 1 0 1 1 3.6109179126442243
0 1 1 1 0 0 3.6109179126442243
0 1 1 1 0 1 3.6109179126442243
0 1 1 1 1 0 3.6109179126442243
0 1 1 1 1 1 3.6109179126442243
1 0 0 0 0 0 100000000.0
1 0 0 0 0 1 100000000.0
1 0 0 0 1 0 100000000.0
1 0 0 0 1 1 3.6109179126442243
1 0 0 1 0 0 100000000.0
1 0 0 1 0 1 100000000.0
1 0 0 1 1 0 100000000.0
1 0 0 1 1 1 3.6109179126442243
1 0 1 0 0 0 100000000.0
1 0 1 0 0 1 100000000.0
1 0 1 0 1 0 100000000.0
1 0 1 0 1 1 3.6109179126442243
1 0 1 1 0 0 3.6109179126442243
1 0 1 1 0 1 3.6109179126442243
1 0 1 1 1 0 3.6109179126442243
1 0 1 1 1 1 3.6109179126442243
1 1 0 0 0 0 3.6109179126442243
1 1 0 0 0 1 3.6109179126442243
1 1 0 0 1 0 3.6109179126442243
1 1 0 0 1 1 3.6109179126442243
1 1 0 1 0 0 3.6109179126442243
1 1 0 1 0 1 3.6109179126442243
1 1 0 1 1 0 3.6109179126442243
1 1 0 1 1 1 3.6109179126442243
1 1 1 0 0 0 3.6109179126442243
1 1 1 0 0 1 3.6109179126442243
1 1 1 0 1 0 3.6109179126442243
1 1 1 0 1 1 3.6109179126442243
1 1 1 1 0 0 3.6109179126442243
1 1 1 1 0 1 3.6109179126442243
1 1 1 1 1 0 3.6109179126442243
1 1 1 1 1 1 3.6109179126442243
6 1 9 4 12 7 15 100000000 64
0 0 0 0 0 0 3.295836866004329
0 0 0 0 0 1 3.295836866004329
0 0 0 0 1 0 3.295836866004329
0 0 0 0 1 1 100000000.0
0 0 0 1 0 0 3.295836866004329
0 0 0 1 0 1 3.295836866004329
0 0 0 1 1 0 3.295836866004329
0 0 0 1 1 1 100000000.0
0 0 1 0 0 0 3.295836866004329
0 0 1 0 0 1 3.295836866004329
0 0 1 0 1 0 3.295836866004329
0 0 1 0 1 1 100000000.0
0 0 1 1 0 0 100000000.0
0 0 1 1 0 1 100000000.0
0 0 1 1 1 0 100000000.0
0 0 1 1 1 1 100000000.0
0 1 0 0 0 0 3.295836866004329
0 1 0 0 0 1 3.295836866004329
0 1 0 0 1 0 3.295836866004329
0 1 0 0 1 1 100000000.0
0 1 0 1 0 0 3.295836866004329
0 1 0 1 0 1 3.295836866004329
0 1 0 1 1 0 3.295836866004329
0 1 0 1 1 1 100000000.0
0 1 1 0 0 0 3.295836866004329
0 1 1 0 0 1 3.295836866004329
0 1 1 0 1 0 3.295836866004329
0 1 1 0 1 1 100000000.0
0 1 1 1 0 0 100000000.0
0 1 1 1 0 1 100000000.0
0 1 1 1 1 0 100000000.0
0 1 1 1 1 1 100000000.0
1 0 0 0 0 0 3.295836866004329
1 0 0 0 0 1 3.295836866004329
1 0 0 0 1 0 3.295836866004329
1 0 0 0 1 1 100000000.0
1 0 0 1 0 0 3.295836866004329
1 0 0 1 0 1 3.295836866004329
1 0 0 1 1 0 3.295836866004329
1 0 0 1 1 1 100000000.0
1 0 1 0 0 0 3.295836866004329
1 0 1 0 0 1 3.295836866004329
1 0 1 0 1 0 3.295836866004329
1 0 1 0 1 1 100000000.0
1 0 1 1 0 0 100000000.0
1 0 1 1 0 1 100000000.0
1 0 1 1 1 0 100000000.0
1 0 1 1 1 1 100000000.0
1 1 0 0 0 0 100000000.0
1 1 0 0 0 1 100000000.0
1 1 0 0 1 0 100000000.0
1 1 0 0 1 1 100000000.0
1 1 0 1 0 0 100000000.0
1 1 0 1 0 1 100000000.0
1 1 0 1 1 0 100000000.0
1 1 0 1 1 1 100000000.0
1 1 1 0 0 0 100000000.0
1 1 1 0 0 1 100000000.0
1 1 1 0 1 0 100000000.0
1 1 1 0 1 1 100000000.0
1 1 1 1 0 0 100000000.0
1 1 1 1 0 1 100000000.0
1 1 1 1 1 0 100000000.0
1 1 1 1 1 1 100000000.0
6 2 19 5 22 8 25 100000000 64
0 0 0 0 0 0 100000000.0
0 0 0 0 0 1 100000000.0
0 0 0 0 1 0 100000000.0
0 0 0 0 1 1 3.6109179126442243
0 0 0 1 0 0 100000000.0
0 0 0 1 0 1 100000000.0
0 0 0 1 1 0 100000000.0
0 0 0 1 1 1 3.6109179126442243
0 0 1 0 0 0 100000000.0
0 0 1 0 0 1 100000000.0
0 0 1 0 1 0 100000000.0
0 0 1 0 1 1 3.6109179126442243
0 0 1 1 0 0 3.6109179126442243
0 0 1 1 0 1 3.6109179126442243
0 0 1 1 1 0 3.6109179126442243
0 0 1 1 1 1 3.6109179126442243
0 1 0 0 0 0 100000000.0
0 1 0 0 0 1 100000000.0
0 1 0 0 1 0 100000000.0
0 1 0 0 1 1 3.6109179126442243
0 1 0 1 0 0 100000000.0
0 1 0 1 0 1 100000000.0
0 1 0 1 1 0 100000000.0
0 1 0 1 1 1 3.6109179126442243
0 1 1 0 0 0 100000000.0
0 1 1 0 0 1 100000000.0
0 1 1 0 1 0 100000000.0
0 1 1 0 1 1 3.6109179126442243
0 1 1 1 0 0 3.6109179126442243
0 1 1 1 0 1 3.6109179126442243
0 1 1 1 1 0 3.6109179126442243
0 1 1 1 1 1 3.6109179126442243
1 0 0 0 0 0 100000000.0
1 0 0 0 0 1 100000000.0
1 0 0 0 1 0 100000000.0
1 0 0 0 1 1 3.6109179126442243
1 0 0 1 0 0 100000000.0
1 0 0 1 0 1 100000000.0
1 0 0 1 1 0 100000000.0
1 0 0 1 1 1 3.6109179126442243
1 0 1 0 0 0 100000000.0
1 0 1 0 0 1 100000000.0
1 0 1 0 1 0 100000000.0
1 0 1 0 1 1 3.6109179126442243
1 0 1 1 0 0 3.6109179126442243
1 0 1 1 0 1 3.6109179126442243
1 0 1 1 1 0 3.6109179126442243
1 0 1 1 1 1 3.6109179126442243
1 1 0 0 0 0 3.6109179126442243
1 1 0 0 0 1 3.6109179126442243
1 1 0 0 1 0 3.6109179126442243
1 1 0 0 1 1 3.6109179126442243
1 1 0 1 0 0 3.6109179126442243
1 1 0 1 0 1 3.6109179126442243
1 1 0 1 1 0 3.6109179126442243
1 1 0 1 1 1 3.6109179126442243
1 1 1 0 0 0 3.6109179126442243
1 1 1 0 0 1 3.6109179126442243
1 1 1 0 1 0 3.6109179126442243
1 1 1 0 1 1 3.6109179126442243
1 1 1 1 0 0 3.6109179126442243
1 1 1 1 0 1 3.6109179126442243
1 1 1 1 1 0 3.6109179126442243
1 1 1 1 1 1 3.6109179126442243
1 26 100000000 2
0 100000000.0
1 0.0
1 5 100000000 2
0 0.0
1 100000000.0
5 23 20 9 4 6 0 2
0 0 1 1 1 100000000
0 0 0 1 0 100000000
5 7 26 1 0 2 0 2
0 1 0 1 0 100000000
0 1 0 0 1 100000000
5 12 14 5 3 15 0 2
0 0 0 0 1 100000000
0 0 0 0 0 100000000
5 24 8 10 25 21 0 2
0 0 0 0 1 100000000
0 1 0 0 1 100000000
5 22 18 19 17 11 0 2
0 0 1 1 0 100000000
0 0 1 0 1 100000000
2 13 16 0 1
1 0 100000000